NislandsX := 6 
//NislandsX := 6
NislandsY := NislandsX
edge := 0.75e-7

gap := 1e-07
width1 := 200e-9 

c := 5e-9
cz := 5e-9
WislandsX := NislandsX * (width1+gap) - gap
WislandsY := (NislandsY) * (width1+gap) 

Nxx := trunc((WislandsX + edge) / c)
Nyy := trunc((WislandsY + edge) / c)
Nx := Nxx + 5
Ny := Nyy + 5
Nz := 2

setGridSize(Nx, Ny, Nz)
setCellSize(c, c, cz)

Ms := 800e3
Msat = Ms
Aex = 1.07e-11
alpha = 0.01
EdgeSmooth = 8

center1 := cylinder(width1, 10e-9)
island_temp1 := center1




island1 := universe().sub(universe())


island1 = island_temp1.transl(-WislandsX/2+(width1)/2, -WislandsY/2+(width1)/2, 0)
islands := universe().sub(universe())

l := 1
in := 0
for i := 1; i <= NislandsX; i++ {
	for j := 1; j <= NislandsY ; j++ {
		k := i - 1
		n := j - 1


		tempisland := island1.transl(k*(width1+gap), n*(width1+ gap), 0)
		print(n*(width1+ gap))
		islands = islands.add(tempisland)
		defregion(l, tempisland)
		xTransl1 := -WislandsX/2 + (width1)/2
		yTransl1 := -WislandsX/2 + (width1)/2
		zTransl := 0
		xTransl2 := k * (width1 + gap)
		yTransl2 := n * (width1 + gap)
		m.setRegion(l, vortex(-1, 1).transl(xTransl1+xTransl2, yTransl1+yTransl2, zTransl))
	


		tableadd(m.Region(l))
		l++
		in++
	}
}


epsilon := 0.25
for i := 1; i <= l; i++ {
	fixedlayer.setRegion(i, vector(0, 0, 1))
	lambda.setRegion(i, 1.5)
	Pol.setRegion(i, 0.2)
	epsilonprime.setRegion(i, epsilon)
	J.setregion(i, vector(0, 0, -5e10*heaviside(t - 5e-9)))
}

//B_ext = vector(0, 0, 0.2)
setgeom(islands)
snapshot(geom)
DisableZhangLiTorque = true
relax()
Jtot := 0.015
area1 := pow(width1/2, 2) * pi

B_ext = vector(0.002*(heaviside(t - 5e-9)-1), 0.002*(heaviside(t - 5e-9)-1), 0) 
relax()
tableadd(J.Region(1))
// tableadd(sttorque.Region(1))
tableadd(E_total)
tableautosave(3e-12)
run(700e-9)
J.setregion(1, vector(0, 0, (-6 - 1.432383979407055)*1e10)) 
run(5e-9) 
J.setregion(1, vector(0, 0, (-6 - 0.9831808953917032)*1e10)) 
run(5e-9) 
J.setregion(1, vector(0, 0, (-6 - 0.5900178975948596)*1e10)) 
run(5e-9) 
J.setregion(1, vector(0, 0, (-6 - 0.20830252104838703)*1e10)) 
run(5e-9) 
J.setregion(1, vector(0, 0, (-6 - -0.10532946188030301)*1e10)) 
run(5e-9) 
J.setregion(1, vector(0, 0, (-6 - -0.4125605122648339)*1e10)) 
run(5e-9) 
J.setregion(1, vector(0, 0, (-6 - -0.6760605837928069)*1e10)) 
run(5e-9) 
J.setregion(1, vector(0, 0, (-6 - -0.9528481323075755)*1e10)) 
run(5e-9) 
J.setregion(1, vector(0, 0, (-6 - -1.1347869174083767)*1e10)) 
run(5e-9) 
J.setregion(1, vector(0, 0, (-6 - -1.32858788286271)*1e10)) 
run(5e-9) 
J.setregion(1, vector(0, 0, (-6 - -1.470805784821738)*1e10)) 
run(5e-9) 
J.setregion(1, vector(0, 0, (-6 - -1.5960488358772602)*1e10)) 
run(5e-9) 
J.setregion(1, vector(0, 0, (-6 - -1.7158005207610973)*1e10)) 
run(5e-9) 
J.setregion(1, vector(0, 0, (-6 - -1.7893041987277967)*1e10)) 
run(5e-9) 
J.setregion(1, vector(0, 0, (-6 - -1.9008548515282258)*1e10)) 
run(5e-9) 
J.setregion(1, vector(0, 0, (-6 - -2.0146821452431922)*1e10)) 
run(5e-9) 
J.setregion(1, vector(0, 0, (-6 - -2.0961082203484187)*1e10)) 
run(5e-9) 
J.setregion(1, vector(0, 0, (-6 - -2.130635141964512)*1e10)) 
run(5e-9) 
J.setregion(1, vector(0, 0, (-6 - -2.051563123930361)*1e10)) 
run(5e-9) 
J.setregion(1, vector(0, 0, (-6 - -1.8540137720063983)*1e10)) 
run(5e-9) 
J.setregion(1, vector(0, 0, (-6 - -1.5471711317334373)*1e10)) 
run(5e-9) 
J.setregion(1, vector(0, 0, (-6 - -1.1722905542709454)*1e10)) 
run(5e-9) 
J.setregion(1, vector(0, 0, (-6 - -0.7756617340459739)*1e10)) 
run(5e-9) 
J.setregion(1, vector(0, 0, (-6 - -0.3966350918605168)*1e10)) 
run(5e-9) 
J.setregion(1, vector(0, 0, (-6 - -0.06187497221079663)*1e10)) 
run(5e-9) 
J.setregion(1, vector(0, 0, (-6 - 0.21660928399197144)*1e10)) 
run(5e-9) 
J.setregion(1, vector(0, 0, (-6 - 0.43966696588445786)*1e10)) 
run(5e-9) 
J.setregion(1, vector(0, 0, (-6 - 0.6108179686896094)*1e10)) 
run(5e-9) 
J.setregion(1, vector(0, 0, (-6 - 0.7410463723790265)*1e10)) 
run(5e-9) 
J.setregion(1, vector(0, 0, (-6 - 0.8305392773112328)*1e10)) 
run(5e-9) 
J.setregion(1, vector(0, 0, (-6 - 0.8936258106037974)*1e10)) 
run(5e-9) 
J.setregion(1, vector(0, 0, (-6 - 0.927504292244739)*1e10)) 
run(5e-9) 
J.setregion(1, vector(0, 0, (-6 - 0.9340261741008064)*1e10)) 
run(5e-9) 
J.setregion(1, vector(0, 0, (-6 - 0.9178687568364184)*1e10)) 
run(5e-9) 
J.setregion(1, vector(0, 0, (-6 - 0.8850922644427051)*1e10)) 
run(5e-9) 
J.setregion(1, vector(0, 0, (-6 - 0.8591697332217327)*1e10)) 
run(5e-9) 
J.setregion(1, vector(0, 0, (-6 - 0.8676466559630325)*1e10)) 
run(5e-9) 
J.setregion(1, vector(0, 0, (-6 - 0.9315179551600045)*1e10)) 
run(5e-9) 
J.setregion(1, vector(0, 0, (-6 - 1.0592801368044795)*1e10)) 
run(5e-9) 
J.setregion(1, vector(0, 0, (-6 - 1.238251996828227)*1e10)) 
run(5e-9) 
J.setregion(1, vector(0, 0, (-6 - 1.4349744641242603)*1e10)) 
run(5e-9) 
J.setregion(1, vector(0, 0, (-6 - 1.6047297442518027)*1e10)) 
run(5e-9) 
J.setregion(1, vector(0, 0, (-6 - 1.712444478634586)*1e10)) 
run(5e-9) 
J.setregion(1, vector(0, 0, (-6 - 1.7455767251567067)*1e10)) 
run(5e-9) 
J.setregion(1, vector(0, 0, (-6 - 1.7115354593566876)*1e10)) 
run(5e-9) 
J.setregion(1, vector(0, 0, (-6 - 1.6260959353831)*1e10)) 
run(5e-9) 
J.setregion(1, vector(0, 0, (-6 - 1.5066123696438676)*1e10)) 
run(5e-9) 
J.setregion(1, vector(0, 0, (-6 - 1.3688191576351154)*1e10)) 
run(5e-9) 
J.setregion(1, vector(0, 0, (-6 - 1.224329328451644)*1e10)) 
run(5e-9) 
J.setregion(1, vector(0, 0, (-6 - 1.084986104454988)*1e10)) 
run(5e-9) 
J.setregion(1, vector(0, 0, (-6 - 0.9604221369056719)*1e10)) 
run(5e-9) 
J.setregion(1, vector(0, 0, (-6 - 0.8570832207429796)*1e10)) 
run(5e-9) 
J.setregion(1, vector(0, 0, (-6 - 0.7758849166236023)*1e10)) 
run(5e-9) 
J.setregion(1, vector(0, 0, (-6 - 0.7071734313847322)*1e10)) 
run(5e-9) 
J.setregion(1, vector(0, 0, (-6 - 0.6324666429200623)*1e10)) 
run(5e-9) 
J.setregion(1, vector(0, 0, (-6 - 0.529213863417479)*1e10)) 
run(5e-9) 
J.setregion(1, vector(0, 0, (-6 - 0.37922850092086524)*1e10)) 
run(5e-9) 
J.setregion(1, vector(0, 0, (-6 - 0.17857559596435468)*1e10)) 
run(5e-9) 
J.setregion(1, vector(0, 0, (-6 - -0.05913032969314902)*1e10)) 
run(5e-9) 
J.setregion(1, vector(0, 0, (-6 - -0.31028837108010565)*1e10)) 
run(5e-9) 
J.setregion(1, vector(0, 0, (-6 - -0.5520362895908633)*1e10)) 
run(5e-9) 
J.setregion(1, vector(0, 0, (-6 - -0.7673685818834368)*1e10)) 
run(5e-9) 
J.setregion(1, vector(0, 0, (-6 - -0.9451776171454722)*1e10)) 
run(5e-9) 
J.setregion(1, vector(0, 0, (-6 - -1.078512114753101)*1e10)) 
run(5e-9) 
J.setregion(1, vector(0, 0, (-6 - -1.163685847667353)*1e10)) 
run(5e-9) 
J.setregion(1, vector(0, 0, (-6 - -1.1993727224491413)*1e10)) 
run(5e-9) 
J.setregion(1, vector(0, 0, (-6 - -1.1870418714803284)*1e10)) 
run(5e-9) 
J.setregion(1, vector(0, 0, (-6 - -1.1315790801404029)*1e10)) 
run(5e-9) 
J.setregion(1, vector(0, 0, (-6 - -1.0409929888175877)*1e10)) 
run(5e-9) 
J.setregion(1, vector(0, 0, (-6 - -0.9251191438833195)*1e10)) 
run(5e-9) 
J.setregion(1, vector(0, 0, (-6 - -0.792289301999044)*1e10)) 
run(5e-9) 
J.setregion(1, vector(0, 0, (-6 - -0.6454907467366684)*1e10)) 
run(5e-9) 
J.setregion(1, vector(0, 0, (-6 - -0.4803217073792745)*1e10)) 
run(5e-9) 
J.setregion(1, vector(0, 0, (-6 - -0.28641342580679585)*1e10)) 
run(5e-9) 
J.setregion(1, vector(0, 0, (-6 - -0.05449821650591091)*1e10)) 
run(5e-9) 
J.setregion(1, vector(0, 0, (-6 - 0.2128210609718696)*1e10)) 
run(5e-9) 
J.setregion(1, vector(0, 0, (-6 - 0.49650836472216325)*1e10)) 
run(5e-9) 
J.setregion(1, vector(0, 0, (-6 - 0.7699072462805564)*1e10)) 
run(5e-9) 
J.setregion(1, vector(0, 0, (-6 - 1.0120346230991024)*1e10)) 
run(5e-9) 
J.setregion(1, vector(0, 0, (-6 - 1.2136033869495946)*1e10)) 
run(5e-9) 
J.setregion(1, vector(0, 0, (-6 - 1.3754774906547556)*1e10)) 
run(5e-9) 
J.setregion(1, vector(0, 0, (-6 - 1.5046743140082772)*1e10)) 
run(5e-9) 
J.setregion(1, vector(0, 0, (-6 - 1.61091979842739)*1e10)) 
run(5e-9) 
J.setregion(1, vector(0, 0, (-6 - 1.7043116115437935)*1e10)) 
run(5e-9) 
J.setregion(1, vector(0, 0, (-6 - 1.7936209589561596)*1e10)) 
run(5e-9) 
J.setregion(1, vector(0, 0, (-6 - 1.885060860861994)*1e10)) 
run(5e-9) 
J.setregion(1, vector(0, 0, (-6 - 1.9815949299976683)*1e10)) 
run(5e-9) 
J.setregion(1, vector(0, 0, (-6 - 2.0829708898162416)*1e10)) 
run(5e-9) 
J.setregion(1, vector(0, 0, (-6 - 2.1864349270594934)*1e10)) 
run(5e-9) 
J.setregion(1, vector(0, 0, (-6 - 2.2873170093820416)*1e10)) 
run(5e-9) 
J.setregion(1, vector(0, 0, (-6 - 2.378291285089049)*1e10)) 
run(5e-9) 
J.setregion(1, vector(0, 0, (-6 - 2.4465753517573603)*1e10)) 
run(5e-9) 
J.setregion(1, vector(0, 0, (-6 - 2.471090940266194)*1e10)) 
run(5e-9) 
J.setregion(1, vector(0, 0, (-6 - 2.426321407401006)*1e10)) 
run(5e-9) 
J.setregion(1, vector(0, 0, (-6 - 2.295796354176834)*1e10)) 
run(5e-9) 
J.setregion(1, vector(0, 0, (-6 - 2.0824920711288124)*1e10)) 
run(5e-9) 
J.setregion(1, vector(0, 0, (-6 - 1.804899190474157)*1e10)) 
run(5e-9) 
J.setregion(1, vector(0, 0, (-6 - 1.4863415565021167)*1e10)) 
run(5e-9) 
J.setregion(1, vector(0, 0, (-6 - 1.1475706395419791)*1e10)) 
run(5e-9) 
J.setregion(1, vector(0, 0, (-6 - 0.804062050618205)*1e10)) 
run(5e-9) 
J.setregion(1, vector(0, 0, (-6 - 0.4659246077843593)*1e10)) 
run(5e-9) 
J.setregion(1, vector(0, 0, (-6 - 0.13889426909264513)*1e10)) 
run(5e-9) 
J.setregion(1, vector(0, 0, (-6 - -0.1742797099443737)*1e10)) 
run(5e-9) 
J.setregion(1, vector(0, 0, (-6 - -0.4724463082570145)*1e10)) 
run(5e-9) 
J.setregion(1, vector(0, 0, (-6 - -0.7549679129609046)*1e10)) 
run(5e-9) 
J.setregion(1, vector(0, 0, (-6 - -1.0211385520929017)*1e10)) 
run(5e-9) 
J.setregion(1, vector(0, 0, (-6 - -1.2700612231833308)*1e10)) 
run(5e-9) 
J.setregion(1, vector(0, 0, (-6 - -1.5007092989586088)*1e10)) 
run(5e-9) 
J.setregion(1, vector(0, 0, (-6 - -1.711864173871332)*1e10)) 
run(5e-9) 
J.setregion(1, vector(0, 0, (-6 - -1.9017841489457126)*1e10)) 
run(5e-9) 
J.setregion(1, vector(0, 0, (-6 - -2.067717844632181)*1e10)) 
run(5e-9) 
J.setregion(1, vector(0, 0, (-6 - -2.2054578848466306)*1e10)) 
run(5e-9) 
J.setregion(1, vector(0, 0, (-6 - -2.308825930866508)*1e10)) 
run(5e-9) 
J.setregion(1, vector(0, 0, (-6 - -2.3688219013022884)*1e10)) 
run(5e-9) 
J.setregion(1, vector(0, 0, (-6 - -2.3727428319890427)*1e10)) 
run(5e-9) 
J.setregion(1, vector(0, 0, (-6 - -2.304586423054647)*1e10)) 
run(5e-9) 
J.setregion(1, vector(0, 0, (-6 - -2.1488311486694194)*1e10)) 
run(5e-9) 
J.setregion(1, vector(0, 0, (-6 - -1.8986182074617253)*1e10)) 
run(5e-9) 
J.setregion(1, vector(0, 0, (-6 - -1.5646941958091676)*1e10)) 
run(5e-9) 
J.setregion(1, vector(0, 0, (-6 - -1.1771189450209534)*1e10)) 
run(5e-9) 
J.setregion(1, vector(0, 0, (-6 - -0.7761956680100066)*1e10)) 
run(5e-9) 
J.setregion(1, vector(0, 0, (-6 - -0.39922759399281205)*1e10)) 
run(5e-9) 
J.setregion(1, vector(0, 0, (-6 - -0.07201815762308184)*1e10)) 
run(5e-9) 
J.setregion(1, vector(0, 0, (-6 - 0.19244262129671108)*1e10)) 
run(5e-9) 
J.setregion(1, vector(0, 0, (-6 - 0.3910393256117954)*1e10)) 
run(5e-9) 
J.setregion(1, vector(0, 0, (-6 - 0.526765349264082)*1e10)) 
run(5e-9) 
J.setregion(1, vector(0, 0, (-6 - 0.6058744743275863)*1e10)) 
run(5e-9) 
J.setregion(1, vector(0, 0, (-6 - 0.6363000358069284)*1e10)) 
run(5e-9) 
J.setregion(1, vector(0, 0, (-6 - 0.6270771695837642)*1e10)) 
run(5e-9) 
J.setregion(1, vector(0, 0, (-6 - 0.5883953749215145)*1e10)) 
run(5e-9) 
J.setregion(1, vector(0, 0, (-6 - 0.5320270400042724)*1e10)) 
run(5e-9) 
J.setregion(1, vector(0, 0, (-6 - 0.47194758028570594)*1e10)) 
run(5e-9) 
J.setregion(1, vector(0, 0, (-6 - 0.42477191056444996)*1e10)) 
run(5e-9) 
J.setregion(1, vector(0, 0, (-6 - 0.40922222530745694)*1e10)) 
run(5e-9) 
J.setregion(1, vector(0, 0, (-6 - 0.4436617227677039)*1e10)) 
run(5e-9) 
J.setregion(1, vector(0, 0, (-6 - 0.5414076713244493)*1e10)) 
run(5e-9) 
J.setregion(1, vector(0, 0, (-6 - 0.7046298152051337)*1e10)) 
run(5e-9) 
J.setregion(1, vector(0, 0, (-6 - 0.9181538746031939)*1e10)) 
run(5e-9) 
J.setregion(1, vector(0, 0, (-6 - 1.1471144828473077)*1e10)) 
run(5e-9) 
J.setregion(1, vector(0, 0, (-6 - 1.3468077248909922)*1e10)) 
run(5e-9) 
J.setregion(1, vector(0, 0, (-6 - 1.4838309976932835)*1e10)) 
run(5e-9) 
J.setregion(1, vector(0, 0, (-6 - 1.5496173743439197)*1e10)) 
run(5e-9) 
J.setregion(1, vector(0, 0, (-6 - 1.5560923321072284)*1e10)) 
run(5e-9) 
J.setregion(1, vector(0, 0, (-6 - 1.524024327985385)*1e10)) 
run(5e-9) 
J.setregion(1, vector(0, 0, (-6 - 1.4745981695527113)*1e10)) 
run(5e-9) 
J.setregion(1, vector(0, 0, (-6 - 1.4255738485994214)*1e10)) 
run(5e-9) 
J.setregion(1, vector(0, 0, (-6 - 1.389873892263422)*1e10)) 
run(5e-9) 
J.setregion(1, vector(0, 0, (-6 - 1.374979677012306)*1e10)) 
run(5e-9) 
J.setregion(1, vector(0, 0, (-6 - 1.3825854867283158)*1e10)) 
run(5e-9) 
J.setregion(1, vector(0, 0, (-6 - 1.4085767327502983)*1e10)) 
run(5e-9) 
J.setregion(1, vector(0, 0, (-6 - 1.4434658931926645)*1e10)) 
run(5e-9) 
J.setregion(1, vector(0, 0, (-6 - 1.4730115689278442)*1e10)) 
run(5e-9) 
J.setregion(1, vector(0, 0, (-6 - 1.4785376785008206)*1e10)) 
run(5e-9) 
J.setregion(1, vector(0, 0, (-6 - 1.4377945527026974)*1e10)) 
run(5e-9) 
J.setregion(1, vector(0, 0, (-6 - 1.3299421964522038)*1e10)) 
run(5e-9) 
J.setregion(1, vector(0, 0, (-6 - 1.1467592748812008)*1e10)) 
run(5e-9) 
J.setregion(1, vector(0, 0, (-6 - 0.9012640350988236)*1e10)) 
run(5e-9) 
J.setregion(1, vector(0, 0, (-6 - 0.6218649762754361)*1e10)) 
run(5e-9) 
J.setregion(1, vector(0, 0, (-6 - 0.3382695010103465)*1e10)) 
run(5e-9) 
J.setregion(1, vector(0, 0, (-6 - 0.07268475580476141)*1e10)) 
run(5e-9) 
J.setregion(1, vector(0, 0, (-6 - -0.16181778523277457)*1e10)) 
run(5e-9) 
J.setregion(1, vector(0, 0, (-6 - -0.3600176426052748)*1e10)) 
run(5e-9) 
J.setregion(1, vector(0, 0, (-6 - -0.522852995783462)*1e10)) 
run(5e-9) 
J.setregion(1, vector(0, 0, (-6 - -0.6557719263378181)*1e10)) 
run(5e-9) 
J.setregion(1, vector(0, 0, (-6 - -0.7669436158845773)*1e10)) 
run(5e-9) 
J.setregion(1, vector(0, 0, (-6 - -0.865247995118805)*1e10)) 
run(5e-9) 
J.setregion(1, vector(0, 0, (-6 - -0.9582392507068744)*1e10)) 
run(5e-9) 
J.setregion(1, vector(0, 0, (-6 - -1.0504639680317738)*1e10)) 
run(5e-9) 
J.setregion(1, vector(0, 0, (-6 - -1.1424449206646086)*1e10)) 
run(5e-9) 
J.setregion(1, vector(0, 0, (-6 - -1.2302605008364884)*1e10)) 
run(5e-9) 
J.setregion(1, vector(0, 0, (-6 - -1.3052344788683607)*1e10)) 
run(5e-9) 
J.setregion(1, vector(0, 0, (-6 - -1.3533673396070027)*1e10)) 
run(5e-9) 
J.setregion(1, vector(0, 0, (-6 - -1.3552173622026034)*1e10)) 
run(5e-9) 
J.setregion(1, vector(0, 0, (-6 - -1.28866094405756)*1e10)) 
run(5e-9) 
J.setregion(1, vector(0, 0, (-6 - -1.137070216643828)*1e10)) 
run(5e-9) 
J.setregion(1, vector(0, 0, (-6 - -0.9003911763865429)*1e10)) 
run(5e-9) 
J.setregion(1, vector(0, 0, (-6 - -0.5993583797809678)*1e10)) 
run(5e-9) 
J.setregion(1, vector(0, 0, (-6 - -0.2667294264705927)*1e10)) 
run(5e-9) 
J.setregion(1, vector(0, 0, (-6 - 0.06667816469486298)*1e10)) 
run(5e-9) 
J.setregion(1, vector(0, 0, (-6 - 0.38009322965256825)*1e10)) 
run(5e-9) 
J.setregion(1, vector(0, 0, (-6 - 0.6631265901013443)*1e10)) 
run(5e-9) 
J.setregion(1, vector(0, 0, (-6 - 0.9124366385515024)*1e10)) 
run(5e-9) 
J.setregion(1, vector(0, 0, (-6 - 1.1282440026505063)*1e10)) 
run(5e-9) 
J.setregion(1, vector(0, 0, (-6 - 1.3120163691303115)*1e10)) 
run(5e-9) 
J.setregion(1, vector(0, 0, (-6 - 1.4653841365983993)*1e10)) 
run(5e-9) 
J.setregion(1, vector(0, 0, (-6 - 1.5899641222658463)*1e10)) 
run(5e-9) 
J.setregion(1, vector(0, 0, (-6 - 1.6877525004395266)*1e10)) 
run(5e-9) 
J.setregion(1, vector(0, 0, (-6 - 1.761840153449224)*1e10)) 
run(5e-9) 
J.setregion(1, vector(0, 0, (-6 - 1.8173086928080069)*1e10)) 
run(5e-9) 
J.setregion(1, vector(0, 0, (-6 - 1.862135359266832)*1e10)) 
run(5e-9) 
J.setregion(1, vector(0, 0, (-6 - 1.9075301625299528)*1e10)) 
run(5e-9) 
J.setregion(1, vector(0, 0, (-6 - 1.966375886619875)*1e10)) 
run(5e-9) 
J.setregion(1, vector(0, 0, (-6 - 2.048261752864296)*1e10)) 
run(5e-9) 
J.setregion(1, vector(0, 0, (-6 - 2.1514831544953843)*1e10)) 
run(5e-9) 
J.setregion(1, vector(0, 0, (-6 - 2.2564313277247554)*1e10)) 
run(5e-9) 
J.setregion(1, vector(0, 0, (-6 - 2.328148534111164)*1e10)) 
run(5e-9) 
J.setregion(1, vector(0, 0, (-6 - 2.3312698510883454)*1e10)) 
run(5e-9) 
J.setregion(1, vector(0, 0, (-6 - 2.2465495568427363)*1e10)) 
run(5e-9) 
J.setregion(1, vector(0, 0, (-6 - 2.075125962339303)*1e10)) 
run(5e-9) 
J.setregion(1, vector(0, 0, (-6 - 1.8317681556281038)*1e10)) 
run(5e-9) 
J.setregion(1, vector(0, 0, (-6 - 1.5365809955318044)*1e10)) 
run(5e-9) 
J.setregion(1, vector(0, 0, (-6 - 1.2097786586965011)*1e10)) 
run(5e-9) 
J.setregion(1, vector(0, 0, (-6 - 0.8692118224919323)*1e10)) 
run(5e-9) 
J.setregion(1, vector(0, 0, (-6 - 0.5293723886782709)*1e10)) 
run(5e-9) 
J.setregion(1, vector(0, 0, (-6 - 0.20109151264716696)*1e10)) 
run(5e-9) 
J.setregion(1, vector(0, 0, (-6 - -0.10844141552807829)*1e10)) 
run(5e-9) 
J.setregion(1, vector(0, 0, (-6 - -0.3955396825422415)*1e10)) 
run(5e-9) 
J.setregion(1, vector(0, 0, (-6 - -0.6598311140523683)*1e10)) 
run(5e-9) 
J.setregion(1, vector(0, 0, (-6 - -0.9038406322043064)*1e10)) 
run(5e-9) 
J.setregion(1, vector(0, 0, (-6 - -1.1318683190590155)*1e10)) 
run(5e-9) 
J.setregion(1, vector(0, 0, (-6 - -1.3478592300581693)*1e10)) 
run(5e-9) 
J.setregion(1, vector(0, 0, (-6 - -1.5530134273422085)*1e10)) 
run(5e-9) 
J.setregion(1, vector(0, 0, (-6 - -1.7447965821253189)*1e10)) 
run(5e-9) 
J.setregion(1, vector(0, 0, (-6 - -1.9179752266091483)*1e10)) 
run(5e-9) 
J.setregion(1, vector(0, 0, (-6 - -2.066185770689911)*1e10)) 
run(5e-9) 
J.setregion(1, vector(0, 0, (-6 - -2.1823200348878666)*1e10)) 
run(5e-9) 
J.setregion(1, vector(0, 0, (-6 - -2.257533705761883)*1e10)) 
run(5e-9) 
J.setregion(1, vector(0, 0, (-6 - -2.279762825206169)*1e10)) 
run(5e-9) 
J.setregion(1, vector(0, 0, (-6 - -2.233196668531538)*1e10)) 
run(5e-9) 
J.setregion(1, vector(0, 0, (-6 - -2.1009883307635784)*1e10)) 
run(5e-9) 
J.setregion(1, vector(0, 0, (-6 - -1.8731996879529957)*1e10)) 
run(5e-9) 
J.setregion(1, vector(0, 0, (-6 - -1.5572094033856148)*1e10)) 
run(5e-9) 
J.setregion(1, vector(0, 0, (-6 - -1.1811491106927712)*1e10)) 
run(5e-9) 
J.setregion(1, vector(0, 0, (-6 - -0.7846629833481649)*1e10)) 
run(5e-9) 
J.setregion(1, vector(0, 0, (-6 - -0.40455176369086887)*1e10)) 
run(5e-9) 
J.setregion(1, vector(0, 0, (-6 - -0.06621862597913752)*1e10)) 
run(5e-9) 
J.setregion(1, vector(0, 0, (-6 - 0.21685829864913492)*1e10)) 
run(5e-9) 
J.setregion(1, vector(0, 0, (-6 - 0.43975733753753243)*1e10)) 
run(5e-9) 
J.setregion(1, vector(0, 0, (-6 - 0.6027474836015773)*1e10)) 
run(5e-9) 
J.setregion(1, vector(0, 0, (-6 - 0.7093292561840827)*1e10)) 
run(5e-9) 
J.setregion(1, vector(0, 0, (-6 - 0.7653605248562574)*1e10)) 
run(5e-9) 
J.setregion(1, vector(0, 0, (-6 - 0.7786032339062483)*1e10)) 
run(5e-9) 
J.setregion(1, vector(0, 0, (-6 - 0.7584700589605954)*1e10)) 
run(5e-9) 
J.setregion(1, vector(0, 0, (-6 - 0.7160840692885896)*1e10)) 
run(5e-9) 
J.setregion(1, vector(0, 0, (-6 - 0.6646981830110709)*1e10)) 
run(5e-9) 
J.setregion(1, vector(0, 0, (-6 - 0.6202099601341686)*1e10)) 
run(5e-9) 
J.setregion(1, vector(0, 0, (-6 - 0.6010218576595265)*1e10)) 
run(5e-9) 
J.setregion(1, vector(0, 0, (-6 - 0.6260626291441803)*1e10)) 
run(5e-9) 
J.setregion(1, vector(0, 0, (-6 - 0.7101841881505501)*1e10)) 
run(5e-9) 
J.setregion(1, vector(0, 0, (-6 - 0.8576159723449471)*1e10)) 
run(5e-9) 
J.setregion(1, vector(0, 0, (-6 - 1.055341619560883)*1e10)) 
run(5e-9) 
J.setregion(1, vector(0, 0, (-6 - 1.2702274552514843)*1e10)) 
run(5e-9) 
J.setregion(1, vector(0, 0, (-6 - 1.4573772348559253)*1e10)) 
run(5e-9) 
J.setregion(1, vector(0, 0, (-6 - 1.5802636465565745)*1e10)) 
run(5e-9) 
J.setregion(1, vector(0, 0, (-6 - 1.62612220664231)*1e10)) 
run(5e-9) 
J.setregion(1, vector(0, 0, (-6 - 1.6043031746762018)*1e10)) 
run(5e-9) 
J.setregion(1, vector(0, 0, (-6 - 1.5353199237148027)*1e10)) 
run(5e-9) 
J.setregion(1, vector(0, 0, (-6 - 1.4416340594302874)*1e10)) 
run(5e-9) 
J.setregion(1, vector(0, 0, (-6 - 1.342976499888023)*1e10)) 
run(5e-9) 
J.setregion(1, vector(0, 0, (-6 - 1.254558500496038)*1e10)) 
run(5e-9) 
J.setregion(1, vector(0, 0, (-6 - 1.186394436930223)*1e10)) 
run(5e-9) 
J.setregion(1, vector(0, 0, (-6 - 1.1428420500114553)*1e10)) 
run(5e-9) 
J.setregion(1, vector(0, 0, (-6 - 1.122169086317558)*1e10)) 
run(5e-9) 
J.setregion(1, vector(0, 0, (-6 - 1.1163347587301686)*1e10)) 
run(5e-9) 
J.setregion(1, vector(0, 0, (-6 - 1.1112082868237638)*1e10)) 
run(5e-9) 
J.setregion(1, vector(0, 0, (-6 - 1.0873883496531462)*1e10)) 
run(5e-9) 
J.setregion(1, vector(0, 0, (-6 - 1.0225071159672352)*1e10)) 
run(5e-9) 
J.setregion(1, vector(0, 0, (-6 - 0.8973813805552051)*1e10)) 
run(5e-9) 
J.setregion(1, vector(0, 0, (-6 - 0.7062999502478196)*1e10)) 
run(5e-9) 
J.setregion(1, vector(0, 0, (-6 - 0.4632515093075801)*1e10)) 
run(5e-9) 
J.setregion(1, vector(0, 0, (-6 - 0.19547281607405886)*1e10)) 
run(5e-9) 
J.setregion(1, vector(0, 0, (-6 - -0.06912085947429247)*1e10)) 
run(5e-9) 
J.setregion(1, vector(0, 0, (-6 - -0.30936070644333546)*1e10)) 
run(5e-9) 
J.setregion(1, vector(0, 0, (-6 - -0.512011609610519)*1e10)) 
run(5e-9) 
J.setregion(1, vector(0, 0, (-6 - -0.6706726925572053)*1e10)) 
run(5e-9) 
J.setregion(1, vector(0, 0, (-6 - -0.7846582182992277)*1e10)) 
run(5e-9) 
J.setregion(1, vector(0, 0, (-6 - -0.8581104183992199)*1e10)) 
run(5e-9) 
J.setregion(1, vector(0, 0, (-6 - -0.8989052201811178)*1e10)) 
run(5e-9) 
J.setregion(1, vector(0, 0, (-6 - -0.9170336847862617)*1e10)) 
run(5e-9) 
J.setregion(1, vector(0, 0, (-6 - -0.9225078450471103)*1e10)) 
run(5e-9) 
J.setregion(1, vector(0, 0, (-6 - -0.9230948791425682)*1e10)) 
run(5e-9) 
J.setregion(1, vector(0, 0, (-6 - -0.9222386176341137)*1e10)) 
run(5e-9) 
J.setregion(1, vector(0, 0, (-6 - -0.9174199965783207)*1e10)) 
run(5e-9) 
J.setregion(1, vector(0, 0, (-6 - -0.8990504478301939)*1e10)) 
run(5e-9) 
J.setregion(1, vector(0, 0, (-6 - -0.8502969303347017)*1e10)) 
run(5e-9) 
J.setregion(1, vector(0, 0, (-6 - -0.7496877923458878)*1e10)) 
run(5e-9) 
J.setregion(1, vector(0, 0, (-6 - -0.5795184528457402)*1e10)) 
run(5e-9) 
J.setregion(1, vector(0, 0, (-6 - -0.33853648684553184)*1e10)) 
run(5e-9) 
J.setregion(1, vector(0, 0, (-6 - -0.047633791661913616)*1e10)) 
run(5e-9) 
J.setregion(1, vector(0, 0, (-6 - 0.26005820252876355)*1e10)) 
run(5e-9) 
J.setregion(1, vector(0, 0, (-6 - 0.5553708618342289)*1e10)) 
run(5e-9) 
J.setregion(1, vector(0, 0, (-6 - 0.8216767313628759)*1e10)) 
run(5e-9) 
J.setregion(1, vector(0, 0, (-6 - 1.0541072769266646)*1e10)) 
run(5e-9) 
J.setregion(1, vector(0, 0, (-6 - 1.2549586470021616)*1e10)) 
run(5e-9) 
J.setregion(1, vector(0, 0, (-6 - 1.429388089836189)*1e10)) 
run(5e-9) 
J.setregion(1, vector(0, 0, (-6 - 1.582666793528094)*1e10)) 
run(5e-9) 
J.setregion(1, vector(0, 0, (-6 - 1.718913896920314)*1e10)) 
run(5e-9) 
J.setregion(1, vector(0, 0, (-6 - 1.8408848476414599)*1e10)) 
run(5e-9) 
J.setregion(1, vector(0, 0, (-6 - 1.950375857360958)*1e10)) 
run(5e-9) 
J.setregion(1, vector(0, 0, (-6 - 2.0489126963046367)*1e10)) 
run(5e-9) 
J.setregion(1, vector(0, 0, (-6 - 2.1385217394232905)*1e10)) 
run(5e-9) 
J.setregion(1, vector(0, 0, (-6 - 2.2223691992663657)*1e10)) 
run(5e-9) 
J.setregion(1, vector(0, 0, (-6 - 2.304660237811504)*1e10)) 
run(5e-9) 
J.setregion(1, vector(0, 0, (-6 - 2.388389674189565)*1e10)) 
run(5e-9) 
J.setregion(1, vector(0, 0, (-6 - 2.4695658000367855)*1e10)) 
run(5e-9) 
J.setregion(1, vector(0, 0, (-6 - 2.5304273228259593)*1e10)) 
run(5e-9) 
J.setregion(1, vector(0, 0, (-6 - 2.5409419624088905)*1e10)) 
run(5e-9) 
J.setregion(1, vector(0, 0, (-6 - 2.4738335387501094)*1e10)) 
run(5e-9) 
J.setregion(1, vector(0, 0, (-6 - 2.3197052861297993)*1e10)) 
run(5e-9) 
J.setregion(1, vector(0, 0, (-6 - 2.087463860688324)*1e10)) 
run(5e-9) 
J.setregion(1, vector(0, 0, (-6 - 1.7952150426479903)*1e10)) 
run(5e-9) 
J.setregion(1, vector(0, 0, (-6 - 1.4624938913868564)*1e10)) 
run(5e-9) 
J.setregion(1, vector(0, 0, (-6 - 1.1067193649550027)*1e10)) 
run(5e-9) 
J.setregion(1, vector(0, 0, (-6 - 0.7422457829015758)*1e10)) 
run(5e-9) 
J.setregion(1, vector(0, 0, (-6 - 0.38039171678158595)*1e10)) 
run(5e-9) 
J.setregion(1, vector(0, 0, (-6 - 0.029702130772049085)*1e10)) 
run(5e-9) 
J.setregion(1, vector(0, 0, (-6 - -0.30377509525001867)*1e10)) 
run(5e-9) 
J.setregion(1, vector(0, 0, (-6 - -0.6162215886251954)*1e10)) 
run(5e-9) 
J.setregion(1, vector(0, 0, (-6 - -0.9057699630172198)*1e10)) 
run(5e-9) 
J.setregion(1, vector(0, 0, (-6 - -1.1721719263495407)*1e10)) 
run(5e-9) 
J.setregion(1, vector(0, 0, (-6 - -1.4163043025760274)*1e10)) 
run(5e-9) 
J.setregion(1, vector(0, 0, (-6 - -1.6393610736159465)*1e10)) 
run(5e-9) 
J.setregion(1, vector(0, 0, (-6 - -1.8417928996344581)*1e10)) 
run(5e-9) 
J.setregion(1, vector(0, 0, (-6 - -2.022514128283328)*1e10)) 
run(5e-9) 
J.setregion(1, vector(0, 0, (-6 - -2.1788284895404955)*1e10)) 
run(5e-9) 
J.setregion(1, vector(0, 0, (-6 - -2.306620930903339)*1e10)) 
run(5e-9) 
J.setregion(1, vector(0, 0, (-6 - -2.3999537885061244)*1e10)) 
run(5e-9) 
J.setregion(1, vector(0, 0, (-6 - -2.449861313224015)*1e10)) 
run(5e-9) 
J.setregion(1, vector(0, 0, (-6 - -2.4429580479809445)*1e10)) 
run(5e-9) 
J.setregion(1, vector(0, 0, (-6 - -2.3614402597956934)*1e10)) 
run(5e-9) 
J.setregion(1, vector(0, 0, (-6 - -2.187407006952572)*1e10)) 
run(5e-9) 
J.setregion(1, vector(0, 0, (-6 - -1.9136356965151402)*1e10)) 
run(5e-9) 
J.setregion(1, vector(0, 0, (-6 - -1.5555724628382592)*1e10)) 
run(5e-9) 
J.setregion(1, vector(0, 0, (-6 - -1.1516212689191396)*1e10)) 
run(5e-9) 
J.setregion(1, vector(0, 0, (-6 - -0.7480890772766287)*1e10)) 
run(5e-9) 
J.setregion(1, vector(0, 0, (-6 - -0.38228853904458604)*1e10)) 
run(5e-9) 
J.setregion(1, vector(0, 0, (-6 - -0.07571272986010358)*1e10)) 
run(5e-9) 
J.setregion(1, vector(0, 0, (-6 - 0.16377984034047866)*1e10)) 
run(5e-9) 
J.setregion(1, vector(0, 0, (-6 - 0.3369018406184563)*1e10)) 
run(5e-9) 
J.setregion(1, vector(0, 0, (-6 - 0.448785837575635)*1e10)) 
run(5e-9) 
J.setregion(1, vector(0, 0, (-6 - 0.5066442296547032)*1e10)) 
run(5e-9) 
J.setregion(1, vector(0, 0, (-6 - 0.5188092249001466)*1e10)) 
run(5e-9) 
J.setregion(1, vector(0, 0, (-6 - 0.49450882395803636)*1e10)) 
run(5e-9) 
J.setregion(1, vector(0, 0, (-6 - 0.4440256158288763)*1e10)) 
run(5e-9) 
J.setregion(1, vector(0, 0, (-6 - 0.3791673333707979)*1e10)) 
run(5e-9) 
J.setregion(1, vector(0, 0, (-6 - 0.3139887331511869)*1e10)) 
run(5e-9) 
J.setregion(1, vector(0, 0, (-6 - 0.26541417355662)*1e10)) 
run(5e-9) 
J.setregion(1, vector(0, 0, (-6 - 0.25284083653747497)*1e10)) 
run(5e-9) 
J.setregion(1, vector(0, 0, (-6 - 0.2953837178721894)*1e10)) 
run(5e-9) 
J.setregion(1, vector(0, 0, (-6 - 0.4062338189460122)*1e10)) 
run(5e-9) 
J.setregion(1, vector(0, 0, (-6 - 0.5855077655030478)*1e10)) 
run(5e-9) 
J.setregion(1, vector(0, 0, (-6 - 0.8141969926422435)*1e10)) 
run(5e-9) 
J.setregion(1, vector(0, 0, (-6 - 1.0544404107598717)*1e10)) 
run(5e-9) 
J.setregion(1, vector(0, 0, (-6 - 1.2629961302590798)*1e10)) 
run(5e-9) 
J.setregion(1, vector(0, 0, (-6 - 1.4116669899231566)*1e10)) 
run(5e-9) 
J.setregion(1, vector(0, 0, (-6 - 1.4961260376297385)*1e10)) 
run(5e-9) 
J.setregion(1, vector(0, 0, (-6 - 1.529276476056481)*1e10)) 
run(5e-9) 
J.setregion(1, vector(0, 0, (-6 - 1.5306459973583415)*1e10)) 
run(5e-9) 
J.setregion(1, vector(0, 0, (-6 - 1.519391408252143)*1e10)) 
run(5e-9) 
J.setregion(1, vector(0, 0, (-6 - 1.511075341724446)*1e10)) 
run(5e-9) 
J.setregion(1, vector(0, 0, (-6 - 1.5163729642927453)*1e10)) 
run(5e-9) 
J.setregion(1, vector(0, 0, (-6 - 1.5405511492341843)*1e10)) 
run(5e-9) 
J.setregion(1, vector(0, 0, (-6 - 1.5834049123408271)*1e10)) 
run(5e-9) 
J.setregion(1, vector(0, 0, (-6 - 1.6397054001923639)*1e10)) 
run(5e-9) 
J.setregion(1, vector(0, 0, (-6 - 1.7000262091556604)*1e10)) 
run(5e-9) 
J.setregion(1, vector(0, 0, (-6 - 1.7512625929691048)*1e10)) 
run(5e-9) 
J.setregion(1, vector(0, 0, (-6 - 1.7760891312639564)*1e10)) 
run(5e-9) 
J.setregion(1, vector(0, 0, (-6 - 1.7524808714816298)*1e10)) 
run(5e-9) 
J.setregion(1, vector(0, 0, (-6 - 1.6580855411635789)*1e10)) 
run(5e-9) 
J.setregion(1, vector(0, 0, (-6 - 1.4826500533232982)*1e10)) 
run(5e-9) 
J.setregion(1, vector(0, 0, (-6 - 1.2381511103007545)*1e10)) 
run(5e-9) 
J.setregion(1, vector(0, 0, (-6 - 0.9527898862833049)*1e10)) 
run(5e-9) 
J.setregion(1, vector(0, 0, (-6 - 0.6562413075918277)*1e10)) 
run(5e-9) 
J.setregion(1, vector(0, 0, (-6 - 0.37061341509242285)*1e10)) 
run(5e-9) 
J.setregion(1, vector(0, 0, (-6 - 0.10872206494191983)*1e10)) 
run(5e-9) 
J.setregion(1, vector(0, 0, (-6 - -0.12455954145731973)*1e10)) 
run(5e-9) 
J.setregion(1, vector(0, 0, (-6 - -0.3303141793486457)*1e10)) 
run(5e-9) 
J.setregion(1, vector(0, 0, (-6 - -0.5135225762812203)*1e10)) 
run(5e-9) 
J.setregion(1, vector(0, 0, (-6 - -0.6809634114104843)*1e10)) 
run(5e-9) 
J.setregion(1, vector(0, 0, (-6 - -0.8391859248610911)*1e10)) 
run(5e-9) 
J.setregion(1, vector(0, 0, (-6 - -0.9928611140423118)*1e10)) 
run(5e-9) 
J.setregion(1, vector(0, 0, (-6 - -1.1438409974202897)*1e10)) 
run(5e-9) 
J.setregion(1, vector(0, 0, (-6 - -1.2909789835680745)*1e10)) 
run(5e-9) 
J.setregion(1, vector(0, 0, (-6 - -1.4303207514257574)*1e10)) 
run(5e-9) 
J.setregion(1, vector(0, 0, (-6 - -1.5550480941154146)*1e10)) 
run(5e-9) 
J.setregion(1, vector(0, 0, (-6 - -1.6548382752640556)*1e10)) 
run(5e-9) 
J.setregion(1, vector(0, 0, (-6 - -1.7150553113007942)*1e10)) 
run(5e-9) 
J.setregion(1, vector(0, 0, (-6 - -1.7171241847490306)*1e10)) 
run(5e-9) 
J.setregion(1, vector(0, 0, (-6 - -1.6420083230809388)*1e10)) 
run(5e-9) 
J.setregion(1, vector(0, 0, (-6 - -1.4777509897595518)*1e10)) 
run(5e-9) 
J.setregion(1, vector(0, 0, (-6 - -1.2278715898287194)*1e10)) 
run(5e-9) 
J.setregion(1, vector(0, 0, (-6 - -0.9132158381975817)*1e10)) 
run(5e-9) 
J.setregion(1, vector(0, 0, (-6 - -0.56428145551863)*1e10)) 
run(5e-9) 
J.setregion(1, vector(0, 0, (-6 - -0.210485548131099)*1e10)) 
run(5e-9) 